param n_mines := 4;
param T := 5;
param n_maxwork := 3;

param royalty :=
1 5000000
2 4000000
3 4000000
4 5000000;

param limit :=
1 2000000
2 2500000
3 1300000
4 3000000;

param quality :=
1 1.0
2 0.7
3 1.5
4 0.5;

param requiredquality :=
1 0.9
2 0.8
3 1.2
4 0.6
5 1.0;

param price := 10;
param discount := 0.1;
